
Log started (V11.0.0) Mon Apr 14 20:43:55 2008

Tried aggregator 1 time.
Reduced MIP has 550 rows, 25001 columns, and 50050 nonzeros.
Presolve time =    0.19 sec.
Clique table members: 500.
MIP emphasis: balance optimality and feasibility.
MIP search method: dynamic search.
Parallel mode: none, using 1 thread.
Root relaxation solution time =    0.86 sec.

        Nodes                                         Cuts/
   Node  Left     Objective  IInf  Best Integer     Best Node    ItCnt     Gap

*     0+    0                        25481.0000       25.7286     1210   99.90%
*     0+    0                           31.0000       25.7286     1210   17.00%
      0     0       26.0000    69       31.0000      Fract: 6     1219   16.13%
*     0+    0                           30.0000       26.0000     1219   13.33%
*     0+    0                           29.0000       26.0000     1219   10.34%

Repeating presolve.
Tried aggregator 1 time.
MIP Presolve eliminated 0 rows and 18005 columns.
Reduced MIP has 550 rows, 6996 columns, and 14040 nonzeros.
Tried aggregator 1 time.
Represolve time =    0.41 sec.
Clique table members: 976.
MIP emphasis: balance optimality and feasibility.
MIP search method: dynamic search.
Parallel mode: none, using 1 thread.
Root relaxation solution time =    0.23 sec.

        Nodes                                         Cuts/
   Node  Left     Objective  IInf  Best Integer     Best Node    ItCnt     Gap

      0     0       26.0000    93       29.0000       26.0000      990   10.34%
*     0+    0                           28.0000       26.0000      990    7.14%
      0     2       26.0000    93       28.0000       26.0000      990    7.14%
    100    91    infeasible             28.0000       26.0000     5785    7.14%
    200   171       27.0000    63       28.0000       26.0000    13977    7.14%
    300   255       27.0000    69       28.0000       26.0000    21807    7.14%
    400   319       26.0000    92       28.0000       26.0000    33223    7.14%
    500   413       27.0000    93       28.0000       26.0000    37430    7.14%
    600   461       27.0000    68       28.0000       26.0000    44585    7.14%
    700   472       27.0000    81       28.0000       26.0000    54021    7.14%
    800   455    infeasible             28.0000       26.0000    70113    7.14%
    900   479       27.0000    76       28.0000       26.0000    74668    7.14%
   1000   501       27.0000    72       28.0000       26.0000    82952    7.14%
Elapsed time =  59.95 sec. (tree size =  4.77 MB, solutions = 5)
   1100   516       27.0000    44       28.0000       26.0000    88338    7.14%
   1200   587       27.0000    70       28.0000       26.0000    98241    7.14%
   1300   664       27.0000    79       28.0000       26.0000   109658    7.14%
   1400   760       27.0000    78       28.0000       26.0000   117935    7.14%
   1500   851       27.0000    78       28.0000       26.0000   128264    7.14%
   1600   946       27.0000    48       28.0000       26.0000   133506    7.14%
   1700  1041       27.0000    64       28.0000       26.0000   138839    7.14%
   1800  1141       27.0000    70       28.0000       26.0000   144160    7.14%
   1900  1237    infeasible             28.0000       26.0000   153235    7.14%
   2000  1310       27.0000    55       28.0000       26.0000   170082    7.14%
Elapsed time = 101.08 sec. (tree size = 14.35 MB, solutions = 5)
   2100  1401       27.0000    67       28.0000       26.0000   176979    7.14%
   2200  1499       27.0000    69       28.0000       26.0000   181737    7.14%
   2300  1599       27.0000    58       28.0000       26.0000   186354    7.14%
   2400  1678       27.0000    64       28.0000       26.0000   198932    7.14%
   2500  1771       27.0000    38       28.0000       26.0000   203446    7.14%
   2600  1871       27.0000    72       28.0000       26.0000   208637    7.14%
   2700  1954       27.0000    73       28.0000       26.0000   219481    7.14%
   2800  2042       26.0000   106       28.0000       26.0000   227892    7.14%
   2900  2137    infeasible             28.0000       26.0000   234745    7.14%
*  2914+  155                           27.0000       26.0000   238153    3.70%
   3000   209       26.0000   192       27.0000       26.0000   268193    3.70%
Elapsed time = 159.42 sec. (tree size =  2.62 MB, solutions = 6)
   3100   235       26.0000   198       27.0000       26.0000   369918    3.70%
   3200   259    infeasible             27.0000       26.0000   472616    3.70%
   3300   267    infeasible             27.0000       26.0000   597010    3.70%
   3400   349       26.0000   178       27.0000       26.0000   623239    3.70%
   3500   435       26.0000   247       27.0000       26.0000   638676    3.70%
   3600   487       26.0000   229       27.0000       26.0000   700156    3.70%
   3700   551    infeasible             27.0000       26.0000   743228    3.70%
   3800   579       26.0000   273       27.0000       26.0000   859280    3.70%
   3900   593       26.0000   279       27.0000       26.0000   967563    3.70%
   4000   617       26.0000   278       27.0000       26.0000  1073791    3.70%
Elapsed time = 671.27 sec. (tree size = 11.09 MB, solutions = 6)
   4100   667       26.0000   241       27.0000       26.0000  1144490    3.70%
   4200   703       26.0000   248       27.0000       26.0000  1241391    3.70%
   4300   695       26.0000   304       27.0000       26.0000  1417082    3.70%
   4400   677       26.0000   315       27.0000       26.0000  1600783    3.70%
   4500   619       26.0000   326       27.0000       26.0000  1877868    3.70%
   4600   627    infeasible             27.0000       26.0000  2004172    3.70%
   4700   599       26.0000   271       27.0000       26.0000  2195793    3.70%
   4800   605       26.0000   261       27.0000       26.0000  2301343    3.70%
   4900   641    infeasible             27.0000       26.0000  2381173    3.70%
   5000   665       26.0000   265       27.0000       26.0000  2472116    3.70%
Elapsed time = 1813.89 sec. (tree size = 14.85 MB, solutions = 6)
   5100   711       26.0000   301       27.0000       26.0000  2523974    3.70%
   5200   749    infeasible             27.0000       26.0000  2587606    3.70%
   5300   749    infeasible             27.0000       26.0000  2697365    3.70%
   5400   771       26.0000   239       27.0000       26.0000  2770173    3.70%
   5500   815       26.0000   306       27.0000       26.0000  2823158    3.70%
   5600   809    infeasible             27.0000       26.0000  2925944    3.70%
   5700   831    infeasible             27.0000       26.0000  3007412    3.70%
   5800   809       26.0000   266       27.0000       26.0000  3156931    3.70%
   5900   851       26.0000   207       27.0000       26.0000  3201657    3.70%
   6000   879       26.0000   267       27.0000       26.0000  3256415    3.70%
Elapsed time = 2569.11 sec. (tree size = 21.65 MB, solutions = 6)
   6100   863    infeasible             27.0000       26.0000  3347132    3.70%
   6200   869       26.0000   322       27.0000       26.0000  3428715    3.70%
   6300   845    infeasible             27.0000       26.0000  3577016    3.70%
   6400   835       26.0000   302       27.0000       26.0000  3691797    3.70%
   6500   853    infeasible             27.0000       26.0000  3759046    3.70%
   6600   863       26.0000   287       27.0000       26.0000  3841273    3.70%
   6700   881    infeasible             27.0000       26.0000  3911004    3.70%
   6800   913    infeasible             27.0000       26.0000  3968879    3.70%
   6900   917       26.0000   263       27.0000       26.0000  4035878    3.70%
   7000   953       26.0000   251       27.0000       26.0000  4099030    3.70%
Elapsed time = 3419.55 sec. (tree size = 24.75 MB, solutions = 6)
   7100   973       26.0000   257       27.0000       26.0000  4157780    3.70%
   7200   995    infeasible             27.0000       26.0000  4211715    3.70%
   7300   997       26.0000   309       27.0000       26.0000  4284702    3.70%
   7400   977    infeasible             27.0000       26.0000  4396836    3.70%
   7500   953    infeasible             27.0000       26.0000  4521399    3.70%
   7600   931       26.0000   284       27.0000       26.0000  4615334    3.70%
   7700   923       26.0000   281       27.0000       26.0000  4725664    3.70%
   7800   929    infeasible             27.0000       26.0000  4795100    3.70%
   7900   875    infeasible             27.0000       26.0000  4955667    3.70%
   8000   842       26.0000   280       27.0000       26.0000  5072314    3.70%
Elapsed time = 4441.92 sec. (tree size = 22.53 MB, solutions = 6)
   8100   812    infeasible             27.0000       26.0000  5194069    3.70%
   8200   760    infeasible             27.0000       26.0000  5334834    3.70%
   8300   734       26.0000   277       27.0000       26.0000  5443060    3.70%
   8400   756    infeasible             27.0000       26.0000  5501931    3.70%
   8500   718    infeasible             27.0000       26.0000  5627946    3.70%
   8600   696    infeasible             27.0000       26.0000  5718642    3.70%
   8700   658    infeasible             27.0000       26.0000  5864348    3.70%
   8800   608       26.0000   291       27.0000       26.0000  5983180    3.70%
   8900   584       26.0000   282       27.0000       26.0000  6098488    3.70%
   9000   552    infeasible             27.0000       26.0000  6217430    3.70%
Elapsed time = 5684.34 sec. (tree size = 15.38 MB, solutions = 6)
   9100   524       26.0000   297       27.0000       26.0000  6337195    3.70%
   9200   500    infeasible             27.0000       26.0000  6461953    3.70%
   9300   436    infeasible             27.0000       26.0000  6620586    3.70%
   9400   388       26.0000   320       27.0000       26.0000  6751113    3.70%
   9500   346       26.0000   301       27.0000       26.0000  6857220    3.70%
   9600   292    infeasible             27.0000       26.0000  6998332    3.70%
   9700   234    infeasible             27.0000       26.0000  7137008    3.70%
   9800   180    infeasible             27.0000       26.0000  7266787    3.70%
   9900   134       26.0000   312       27.0000       26.0000  7392747    3.70%
  10000    78    infeasible             27.0000       26.0000  7549083    3.70%
Elapsed time = 7058.83 sec. (tree size =  2.30 MB, solutions = 6)

Cover cuts applied:  2062
Mixed integer rounding cuts applied:  22
Zero-half cuts applied:  2
Gomory fractional cuts applied:  7

Solution pool: 6 solutions saved.

MIP - Time limit exceeded, integer feasible:  Objective = 2.7000000000e+001
Current MIP best bound = 2.6000000000e+001 (gap = 1, 3.70%)
Solution time = 7200.06 sec.  Iterations = 7686328  Nodes = 10080 (17)


Incumbent solution
Variable Name           Solution Value
Cmax                         27.000000
X_1_4                         1.000000
X_2_18                        1.000000
X_3_21                        1.000000
X_4_43                        1.000000
X_5_28                        1.000000
X_6_5                         1.000000
X_7_25                        1.000000
X_8_17                        1.000000
X_9_25                        1.000000
X_10_34                       1.000000
X_11_23                       1.000000
X_12_40                       1.000000
X_13_40                       1.000000
X_14_31                       1.000000
X_15_2                        1.000000
X_16_12                       1.000000
X_17_31                       1.000000
X_18_6                        1.000000
X_19_39                       1.000000
X_20_48                       1.000000
X_21_2                        1.000000
X_22_36                       1.000000
X_23_47                       1.000000
X_24_18                       1.000000
X_25_15                       1.000000
X_26_43                       1.000000
X_27_44                       1.000000
X_28_7                        1.000000
X_29_33                       1.000000
X_30_32                       1.000000
X_31_6                        1.000000
X_32_6                        1.000000
X_33_37                       1.000000
X_34_37                       1.000000
X_35_36                       1.000000
X_36_4                        1.000000
X_37_41                       1.000000
X_38_38                       1.000000
X_39_24                       1.000000
X_40_41                       1.000000
X_41_6                        1.000000
X_42_26                       1.000000
X_43_14                       1.000000
X_44_47                       1.000000
X_45_6                        1.000000
X_46_8                        1.000000
X_47_10                       1.000000
X_48_41                       1.000000
X_49_16                       1.000000
X_50_42                       1.000000
X_51_37                       1.000000
X_52_1                        1.000000
X_53_6                        1.000000
X_54_39                       1.000000
X_55_18                       1.000000
X_56_18                       1.000000
X_57_23                       1.000000
X_58_28                       1.000000
X_59_3                        1.000000
X_60_26                       1.000000
X_61_10                       1.000000
X_62_16                       1.000000
X_63_14                       1.000000
X_64_23                       1.000000
X_65_46                       1.000000
X_66_42                       1.000000
X_67_43                       1.000000
X_68_44                       1.000000
X_69_19                       1.000000
X_70_28                       1.000000
X_71_2                        1.000000
X_72_25                       1.000000
X_73_24                       1.000000
X_74_42                       1.000000
X_75_45                       1.000000
X_76_44                       1.000000
X_77_31                       1.000000
X_78_31                       1.000000
X_79_5                        1.000000
X_80_44                       1.000000
X_81_39                       1.000000
X_82_19                       1.000000
X_83_15                       1.000000
X_84_19                       1.000000
X_85_26                       1.000000
X_86_15                       1.000000
X_87_28                       1.000000
X_88_17                       1.000000
X_89_50                       1.000000
X_90_13                       1.000000
X_91_26                       1.000000
X_92_37                       1.000000
X_93_3                        1.000000
X_94_16                       1.000000
X_95_11                       1.000000
X_96_9                        1.000000
X_97_32                       1.000000
X_98_4                        1.000000
X_99_23                       1.000000
X_100_23                      1.000000
X_101_4                       1.000000
X_102_49                      1.000000
X_103_18                      1.000000
X_104_49                      1.000000
X_105_19                      1.000000
X_106_6                       1.000000
X_107_36                      1.000000
X_108_25                      1.000000
X_109_34                      1.000000
X_110_23                      1.000000
X_111_17                      1.000000
X_112_12                      1.000000
X_113_38                      1.000000
X_114_28                      1.000000
X_115_34                      1.000000
X_116_7                       1.000000
X_117_49                      1.000000
X_118_20                      1.000000
X_119_12                      1.000000
X_120_35                      1.000000
X_121_29                      1.000000
X_122_12                      1.000000
X_123_29                      1.000000
X_124_33                      1.000000
X_125_4                       1.000000
X_126_8                       1.000000
X_127_38                      1.000000
X_128_7                       1.000000
X_129_2                       1.000000
X_130_35                      1.000000
X_131_39                      1.000000
X_132_38                      1.000000
X_133_5                       1.000000
X_134_35                      1.000000
X_135_10                      1.000000
X_136_21                      1.000000
X_137_43                      1.000000
X_138_6                       1.000000
X_139_47                      1.000000
X_140_26                      1.000000
X_141_3                       1.000000
X_142_29                      1.000000
X_143_41                      1.000000
X_144_44                      1.000000
X_145_25                      1.000000
X_146_44                      1.000000
X_147_32                      1.000000
X_148_20                      1.000000
X_149_7                       1.000000
X_150_18                      1.000000
X_151_23                      1.000000
X_152_42                      1.000000
X_153_21                      1.000000
X_154_26                      1.000000
X_155_30                      1.000000
X_156_48                      1.000000
X_157_6                       1.000000
X_158_28                      1.000000
X_159_7                       1.000000
X_160_23                      1.000000
X_161_9                       1.000000
X_162_5                       1.000000
X_163_40                      1.000000
X_164_22                      1.000000
X_165_18                      1.000000
X_166_34                      1.000000
X_167_3                       1.000000
X_168_15                      1.000000
X_169_6                       1.000000
X_170_33                      1.000000
X_171_14                      1.000000
X_172_7                       1.000000
X_173_43                      1.000000
X_174_12                      1.000000
X_175_32                      1.000000
X_176_43                      1.000000
X_177_33                      1.000000
X_178_42                      1.000000
X_179_42                      1.000000
X_180_2                       1.000000
X_181_20                      1.000000
X_182_41                      1.000000
X_183_30                      1.000000
X_184_40                      1.000000
X_185_28                      1.000000
X_186_50                      1.000000
X_187_41                      1.000000
X_188_45                      1.000000
X_189_5                       1.000000
X_190_21                      1.000000
X_191_8                       1.000000
X_192_9                       1.000000
X_193_34                      1.000000
X_194_6                       1.000000
X_195_33                      1.000000
X_196_19                      1.000000
X_197_15                      1.000000
X_198_48                      1.000000
X_199_3                       1.000000
X_200_35                      1.000000
X_201_44                      1.000000
X_202_20                      1.000000
X_203_20                      1.000000
X_204_9                       1.000000
X_205_31                      1.000000
X_206_33                      1.000000
X_207_17                      1.000000
X_208_45                      1.000000
X_209_45                      1.000000
X_210_50                      1.000000
X_211_40                      1.000000
X_212_11                      1.000000
X_213_40                      1.000000
X_214_9                       1.000000
X_215_40                      1.000000
X_216_24                      1.000000
X_217_14                      1.000000
X_218_15                      1.000000
X_219_24                      1.000000
X_220_9                       1.000000
X_221_46                      1.000000
X_222_14                      1.000000
X_223_48                      1.000000
X_224_30                      1.000000
X_225_44                      1.000000
X_226_12                      1.000000
X_227_43                      1.000000
X_228_8                       1.000000
X_229_46                      1.000000
X_230_39                      1.000000
X_231_7                       1.000000
X_232_43                      1.000000
X_233_35                      1.000000
X_234_50                      1.000000
X_235_4                       1.000000
X_236_14                      1.000000
X_237_26                      1.000000
X_238_11                      1.000000
X_239_49                      1.000000
X_240_44                      1.000000
X_241_22                      1.000000
X_242_42                      1.000000
X_243_22                      1.000000
X_244_44                      1.000000
X_245_9                       1.000000
X_246_27                      1.000000
X_247_7                       1.000000
X_248_13                      1.000000
X_249_28                      1.000000
X_250_9                       1.000000
X_251_2                       1.000000
X_252_10                      1.000000
X_253_2                       1.000000
X_254_2                       1.000000
X_255_34                      1.000000
X_256_20                      1.000000
X_257_10                      1.000000
X_258_45                      1.000000
X_259_41                      1.000000
X_260_29                      1.000000
X_261_11                      1.000000
X_262_19                      1.000000
X_263_21                      1.000000
X_264_46                      1.000000
X_265_19                      1.000000
X_266_29                      1.000000
X_267_3                       1.000000
X_268_24                      1.000000
X_269_22                      1.000000
X_270_36                      1.000000
X_271_32                      1.000000
X_272_23                      1.000000
X_273_10                      1.000000
X_274_39                      1.000000
X_275_21                      1.000000
X_276_8                       1.000000
X_277_43                      1.000000
X_278_14                      1.000000
X_279_34                      1.000000
X_280_42                      1.000000
X_281_26                      1.000000
X_282_37                      1.000000
X_283_22                      1.000000
X_284_48                      1.000000
X_285_1                       1.000000
X_286_31                      1.000000
X_287_35                      1.000000
X_288_48                      1.000000
X_289_46                      1.000000
X_290_8                       1.000000
X_291_11                      1.000000
X_292_22                      1.000000
X_293_9                       1.000000
X_294_5                       1.000000
X_295_40                      1.000000
X_296_38                      1.000000
X_297_18                      1.000000
X_298_12                      1.000000
X_299_19                      1.000000
X_300_27                      1.000000
X_301_23                      1.000000
X_302_21                      1.000000
X_303_2                       1.000000
X_304_46                      1.000000
X_305_37                      1.000000
X_306_18                      1.000000
X_307_19                      1.000000
X_308_45                      1.000000
X_309_43                      1.000000
X_310_36                      1.000000
X_311_22                      1.000000
X_312_50                      1.000000
X_313_1                       1.000000
X_314_13                      1.000000
X_315_1                       1.000000
X_316_3                       1.000000
X_317_31                      1.000000
X_318_4                       1.000000
X_319_12                      1.000000
X_320_43                      1.000000
X_321_6                       1.000000
X_322_24                      1.000000
X_323_40                      1.000000
X_324_20                      1.000000
X_325_4                       1.000000
X_326_46                      1.000000
X_327_15                      1.000000
X_328_9                       1.000000
X_329_16                      1.000000
X_330_37                      1.000000
X_331_33                      1.000000
X_332_11                      1.000000
X_333_22                      1.000000
X_334_47                      1.000000
X_335_47                      1.000000
X_336_47                      1.000000
X_337_41                      1.000000
X_338_32                      1.000000
X_339_20                      1.000000
X_340_30                      1.000000
X_341_2                       1.000000
X_342_32                      1.000000
X_343_7                       1.000000
X_344_11                      1.000000
X_345_36                      1.000000
X_346_30                      1.000000
X_347_30                      1.000000
X_348_13                      1.000000
X_349_44                      1.000000
X_350_47                      1.000000
X_351_35                      1.000000
X_352_25                      1.000000
X_353_25                      1.000000
X_354_12                      1.000000
X_355_13                      1.000000
X_356_23                      1.000000
X_357_1                       1.000000
X_358_43                      1.000000
X_359_38                      1.000000
X_360_18                      1.000000
X_361_30                      1.000000
X_362_41                      1.000000
X_363_1                       1.000000
X_364_49                      1.000000
X_365_24                      1.000000
X_366_27                      1.000000
X_367_35                      1.000000
X_368_19                      1.000000
X_369_24                      1.000000
X_370_30                      1.000000
X_371_37                      1.000000
X_372_10                      1.000000
X_373_31                      1.000000
X_374_34                      1.000000
X_375_45                      1.000000
X_376_15                      1.000000
X_377_46                      1.000000
X_378_16                      1.000000
X_379_23                      1.000000
X_380_19                      1.000000
X_381_31                      1.000000
X_382_29                      1.000000
X_383_10                      1.000000
X_384_22                      1.000000
X_385_35                      1.000000
X_386_42                      1.000000
X_387_35                      1.000000
X_388_21                      1.000000
X_389_15                      1.000000
X_390_32                      1.000000
X_391_36                      1.000000
X_392_41                      1.000000
X_393_22                      1.000000
X_394_1                       1.000000
X_395_19                      1.000000
X_396_1                       1.000000
X_397_18                      1.000000
X_398_35                      1.000000
X_399_34                      1.000000
X_400_17                      1.000000
X_401_46                      1.000000
X_402_1                       1.000000
X_403_2                       1.000000
X_404_7                       1.000000
X_405_49                      1.000000
X_406_46                      1.000000
X_407_30                      1.000000
X_408_20                      1.000000
X_409_25                      1.000000
X_410_26                      1.000000
X_411_14                      1.000000
X_412_24                      1.000000
X_413_38                      1.000000
X_414_44                      1.000000
X_415_42                      1.000000
X_416_3                       1.000000
X_417_8                       1.000000
X_418_20                      1.000000
X_419_34                      1.000000
X_420_20                      1.000000
X_421_31                      1.000000
X_422_32                      1.000000
X_423_39                      1.000000
X_424_15                      1.000000
X_425_39                      1.000000
X_426_50                      1.000000
X_427_5                       1.000000
X_428_40                      1.000000
X_429_49                      1.000000
X_430_49                      1.000000
X_431_12                      1.000000
X_432_13                      1.000000
X_433_43                      1.000000
X_434_27                      1.000000
X_435_50                      1.000000
X_436_29                      1.000000
X_437_47                      1.000000
X_438_16                      1.000000
X_439_24                      1.000000
X_440_6                       1.000000
X_441_45                      1.000000
X_442_38                      1.000000
X_443_20                      1.000000
X_444_11                      1.000000
X_445_14                      1.000000
X_446_8                       1.000000
X_447_9                       1.000000
X_448_39                      1.000000
X_449_36                      1.000000
X_450_32                      1.000000
X_451_38                      1.000000
X_452_8                       1.000000
X_453_50                      1.000000
X_454_1                       1.000000
X_455_12                      1.000000
X_456_27                      1.000000
X_457_30                      1.000000
X_458_14                      1.000000
X_459_17                      1.000000
X_460_21                      1.000000
X_461_21                      1.000000
X_462_11                      1.000000
X_463_46                      1.000000
X_464_32                      1.000000
X_465_2                       1.000000
X_466_40                      1.000000
X_467_30                      1.000000
X_468_45                      1.000000
X_469_33                      1.000000
X_470_8                       1.000000
X_471_22                      1.000000
X_472_38                      1.000000
X_473_5                       1.000000
X_474_37                      1.000000
X_475_25                      1.000000
X_476_27                      1.000000
X_477_3                       1.000000
X_478_10                      1.000000
X_479_7                       1.000000
X_480_48                      1.000000
X_481_45                      1.000000
X_482_30                      1.000000
X_483_38                      1.000000
X_484_29                      1.000000
X_485_22                      1.000000
X_486_22                      1.000000
X_487_35                      1.000000
X_488_11                      1.000000
X_489_50                      1.000000
X_490_27                      1.000000
X_491_16                      1.000000
X_492_23                      1.000000
X_493_16                      1.000000
X_494_4                       1.000000
X_495_11                      1.000000
X_496_1                       1.000000
X_497_16                      1.000000
X_498_48                      1.000000
X_499_15                      1.000000
X_500_23                      1.000000
All other variables in the range 1-25001 are 0.
